100
1000
199
199
198
198
198
197
196
195
194
194
194
193
192
192
191
191
190
190
189
189
189
188
187
185
185
184
184
183
182
180
180
180
179
178
178
178
177
176
176
175
175
174
173
173
172
171
171
170
169
169
169
169
169
169
168
167
167
166
165
165
164
164
164
164
163
162
162
162
161
161
161
161
161
160
159
159
158
158
157
157
156
156
156
155
154
154
153
153
153
153
153
152
152
151
150
150
150
150
150
150
